# ---------- Initialize Simulation ---------------------     
clear     
units metal     
dimension 3     
boundary p p p     
atom_style atomic     
atom_modify map array    
# ---------- Create Atoms ---------------------     
read_data first.data    
# ---------- Define Interatomic Potential ---------------------     
pair_style eam/alloy     
pair_coeff * * NiCo-lammps-2014.alloy Ni Co    
neighbor 2.0 bin      
neigh_modify delay 0 every 1 check yes page 100000 one 4000     
# ---------- Define Settings ---------------------     
compute eng all pe/atom     
# EQUILIBRATION    
reset_timestep	0    
timestep 0.005    
velocity all create 300 12345 mom yes rot no    
fix 1 all npt temp 300 300 100 iso 0 0 1     
#set thermodynamic output    
thermo 1000    
thermo_style custom pe     
run 10000    
unfix 1    
print "All done!"     
print "$(pe)" append energy-ga.txt
jump second.in    
